162
0 68 23 114 104 65 75 96 141 154 
113 69 9 73 151 146 31 93 136 37 
71 5 64 112 44 137 133 117 111 67 
157 153 2 128 45 98 52 66 79 42 
6 1 21 87 58 35 143 83 134 124 
14 60 76 97 54 62 130 99 41 159 
126 144 16 138 86 13 33 158 34 78 
156 149 106 3 160 123 56 61 109 152 
161 48 89 81 102 147 40 12 118 74 
43 10 88 115 94 53 24 57 131 132 
46 95 27 39 18 90 148 91 127 101 
28 19 59 36 139 82 50 105 116 29 
22 77 72 63 135 92 25 49 100 84 
142 145 8 80 55 85 15 107 17 70 
4 108 7 119 47 103 30 110 122 20 
51 155 140 26 121 129 32 38 125 120 
11 150 
